
%FILE DATA:	Soccer Computational Problem for MiniZinc Models	%
%AUTHOR:	Jack Wall	%
%CONTACT:  	116397063@umail.ucc.ie			%
%LAST UPDATE:	03/16/2020, 13:59:12						%
%DESCRIPTION: 	140 games played with 42 games left				%


n=14; %number of teams

%Games to play
games=[|5,13|8,10|4,12|2,5|5,3|10,9|3,7|9,2|14,7|13,12|4,14|11,6|6,8|13,3|10,4|9,6|5,1|4,10|10,12|10,5|12,14|3,2|8,1|11,5|10,11|9,12|13,6|5,7|14,10|1,10|9,5|9,14|10,3|1,2|4,7|8,7|8,12|12,10|2,3|5,10|8,11|12,6|];

%Initial points
iPoints=[39,25,17,26,25,33,32,27,26,18,21,22,28,38];

%POSITION CONSTRAINTS
% [|teamID, operator, position|...]
% operators index:
%  1 for =  operator
%  2 for >  operator
%  3 for >= operator
%  4 for <  operator
%  5 for <= operator
positionConstraints=[|14,3,1|5,5,2|1,2,2|6,2,3|8,1,5|];